# Solution for model GasLib-40
# Objective value = 1.0459188203022808e+01
loadshed[innode_1] 0
loadshed[innode_2] 0
loadshed[innode_3] 0
loadshed[innode_4] 0
loadshed[innode_5] 0
loadshed[innode_6] 0
loadshed[innode_7] 0
loadshed[innode_8] 0
loadshed[source_1] -2.9536211417712344e-01
loadshed[source_2] 5.6998092520047061e-02
loadshed[source_3] 3.0452361318935117e-01
loadshed[sink_1] 0
loadshed[sink_2] 0
loadshed[sink_3] 0
loadshed[sink_4] 0
loadshed[sink_5] 0
loadshed[sink_6] 0
loadshed[sink_7] 0
loadshed[sink_8] 0
loadshed[sink_9] 0
loadshed[sink_10] 0
loadshed[sink_11] 0
loadshed[sink_12] 6.3954271814661756e-01
loadshed[sink_13] 0
loadshed[sink_14] 0
loadshed[sink_15] 0
loadshed[sink_16] 0
loadshed[sink_17] 0
loadshed[sink_18] 0
loadshed[sink_19] 0
loadshed[sink_20] 0
loadshed[sink_21] 0
loadshed[sink_22] 0
loadshed[sink_23] 0
loadshed[sink_24] 0
loadshed[sink_25] 0
loadshed[sink_26] 0
loadshed[sink_27] 0
loadshed[sink_28] 0
loadshed[sink_29] 0
flow[source_1,sink_3] 2.0478415645307092e+02
flow[innode_1,sink_16] 1.6354166666666970e+01
flow[innode_6,sink_13] 4.5311114878855960e+00
flow[sink_13,sink_14] -1.1823055178781072e+01
flow[sink_14,sink_10] -2.8177221845447775e+01
flow[sink_25,sink_26] 1.7163385096811749e+02
flow[sink_26,sink_9] 1.2189261809324361e+02
flow[sink_9,sink_18] 1.0553845142657694e+02
flow[sink_26,sink_4] 3.3387066208207159e+01
flow[sink_4,sink_20] -1.7197153958722311e+01
flow[sink_18,sink_6] 8.9184284759910270e+01
flow[sink_25,innode_8] -1.7207582311973454e+02
flow[sink_6,sink_7] 4.0121784759910042e+01
flow[sink_6,sink_22] 3.2708333333333641e+01
flow[sink_7,sink_24] 3.8603311796977195e+01
flow[sink_22,sink_1] 1.6354166666666970e+01
flow[sink_24,sink_21] 2.2249145130310527e+01
flow[sink_21,sink_12] 5.89497846364386
flow[sink_7,sink_5] -1.4835693703733710e+01
flow[sink_5,sink_17] -3.1189860370400311e+01
flow[sink_17,sink_4] -3.4230053500262841e+01
flow[sink_17,sink_8] -1.3313973536804042e+01
flow[sink_3,sink_23] 16.3541666666697
flow[sink_8,sink_20] -2.9668140203470728e+01
flow[sink_25,sink_20] 6.3219460828859781e+01
flow[sink_25,sink_15] -8.3662766831795423e+01
flow[sink_15,sink_29] -1.0001693349846209e+02
flow[sink_29,sink_28] 1.6354166666667879e+01
flow[sink_29,sink_2] 1.6354166666684250e+01
flow[sink_2,sink_15] 0
flow[sink_29,innode_7] -1.4907943349848006e+02
flow[innode_4,sink_19] 4.2236644141094075e+01
flow[sink_19,innode_3] 7.7239721845448230e+01
flow[innode_4,innode_5] 6.7711411037686617e+01
flow[sink_27,innode_5] -6.7711411037686617e+01
flow[sink_27,sink_19] 5.1357244371019988e+01
flow[sink_10,sink_11] 3.2708333333333641e+01
flow[sink_10,innode_2] 0
flow[sink_10,innode_3] -7.7239721845448230e+01
flow[innode_6,sink_25] -4.5311114878855960e+00
flow[sink_11,innode_1] 1.6354166666666970e+01
flow[sink_19,innode_2] 0
flow[source_3,innode_4] 1.0994805517878069e+02
flow[source_2,innode_7] 1.4907943349848006e+02
flow[sink_3,innode_8] 1.7207582311973454e+02
pressure[innode_1] 7.4867148293985068e+01
pressure[innode_2] 7.9302135926261627e+01
pressure[innode_3] 7.9131097308684545e+01
pressure[innode_4] 81.01325
pressure[innode_5] 8.0966674521054514e+01
pressure[innode_6] 7.3689927469301864e+01
pressure[innode_7] 81.01325
pressure[innode_8] 8.0328734795360688e+01
pressure[source_1] 81.01325
pressure[source_2] 81.01325
pressure[source_3] 81.01325
pressure[sink_1] 4.6005009070234962e+01
pressure[sink_2] 7.6611689673461754e+01
pressure[sink_3] 8.0328734795360688e+01
pressure[sink_4] 5.7356938133292083e+01
pressure[sink_5] 5.3725359207815742e+01
pressure[sink_6] 4.8106086680622333e+01
pressure[sink_7] 4.7555310211729022e+01
pressure[sink_8] 5.6551149169020796e+01
pressure[sink_9] 5.4306268351520437e+01
pressure[sink_10] 7.5018849601588613e+01
pressure[sink_11] 7.4867148293985068e+01
pressure[sink_12] 1.0132499999999998e+00
pressure[sink_13] 7.3664948208888219e+01
pressure[sink_14] 7.3686106573232266e+01
pressure[sink_15] 7.4095773411262812e+01
pressure[sink_16] 7.3845498459167388e+01
pressure[sink_17] 5.6048778358624482e+01
pressure[sink_18] 50.4875726202236
pressure[sink_19] 7.9302135926261627e+01
pressure[sink_20] 5.8618601310105724e+01
pressure[sink_21] 3.1110059707925277e+00
pressure[sink_22] 4.7068778212589976e+01
pressure[sink_23] 80.1640167837009
pressure[sink_24] 3.3573945811895092e+00
pressure[sink_25] 7.3689927469301864e+01
pressure[sink_26] 6.1601856140588360e+01
pressure[sink_27] 80.4047949266762
pressure[sink_28] 7.6730676898308232e+01
pressure[sink_29] 7.7025959171925408e+01
interdiction[source_1,sink_3] 0
interdiction[innode_1,sink_16] 0
interdiction[innode_6,sink_13] 0
interdiction[sink_13,sink_14] 0
interdiction[sink_14,sink_10] 0
interdiction[sink_25,sink_26] 0
interdiction[sink_26,sink_9] 0
interdiction[sink_9,sink_18] 0
interdiction[sink_26,sink_4] 0
interdiction[sink_4,sink_20] 0
interdiction[sink_18,sink_6] 0
interdiction[sink_25,innode_8] 0
interdiction[sink_6,sink_7] 0
interdiction[sink_6,sink_22] 0
interdiction[sink_7,sink_24] 0
interdiction[sink_22,sink_1] 0
interdiction[sink_24,sink_21] 0
interdiction[sink_21,sink_12] 0
interdiction[sink_7,sink_5] 0
interdiction[sink_5,sink_17] 0
interdiction[sink_17,sink_4] 0
interdiction[sink_17,sink_8] 0
interdiction[sink_3,sink_23] 0
interdiction[sink_8,sink_20] 0
interdiction[sink_25,sink_20] 0
interdiction[sink_25,sink_15] 0
interdiction[sink_15,sink_29] 0
interdiction[sink_29,sink_28] 0
interdiction[sink_29,sink_2] 0
interdiction[sink_2,sink_15] 1
interdiction[sink_29,innode_7] 0
interdiction[innode_4,sink_19] 0
interdiction[sink_19,innode_3] 0
interdiction[innode_4,innode_5] 0
interdiction[sink_27,innode_5] 0
interdiction[sink_27,sink_19] 0
interdiction[sink_10,sink_11] 0
interdiction[sink_10,innode_2] 1
interdiction[sink_10,innode_3] 0
interdiction[innode_6,sink_25] 0
interdiction[sink_11,innode_1] 0
interdiction[sink_19,innode_2] 0
interdiction[source_3,innode_4] 0
interdiction[source_2,innode_7] 0
interdiction[sink_3,innode_8] 0
WCcheckFlow[source_1,sink_3] 39
WCcheckFlow[innode_1,sink_16] 1
WCcheckFlow[innode_6,sink_13] 13
WCcheckFlow[sink_13,sink_14] 12
WCcheckFlow[sink_14,sink_10] 11
WCcheckFlow[sink_25,sink_26] 15
WCcheckFlow[sink_26,sink_9] 12
WCcheckFlow[sink_9,sink_18] 11
WCcheckFlow[sink_26,sink_4] 2
WCcheckFlow[sink_4,sink_20] 1
WCcheckFlow[sink_18,sink_6] 10
WCcheckFlow[sink_25,innode_8] -36
WCcheckFlow[sink_6,sink_7] 7
WCcheckFlow[sink_6,sink_22] 2
WCcheckFlow[sink_7,sink_24] 3
WCcheckFlow[sink_22,sink_1] 1
WCcheckFlow[sink_24,sink_21] 2
WCcheckFlow[sink_21,sink_12] 1
WCcheckFlow[sink_7,sink_5] 3
WCcheckFlow[sink_5,sink_17] 2
WCcheckFlow[sink_17,sink_4] 0
WCcheckFlow[sink_17,sink_8] 1
WCcheckFlow[sink_3,sink_23] 1
WCcheckFlow[sink_8,sink_20] 0
WCcheckFlow[sink_25,sink_20] 0
WCcheckFlow[sink_25,sink_15] 6
WCcheckFlow[sink_15,sink_29] 5
WCcheckFlow[sink_29,sink_28] 1
WCcheckFlow[sink_29,sink_2] 1
WCcheckFlow[sink_2,sink_15] 0
WCcheckFlow[sink_29,innode_7] 2
WCcheckFlow[innode_4,sink_19] -4
WCcheckFlow[sink_19,innode_3] -6
WCcheckFlow[innode_4,innode_5] 2
WCcheckFlow[sink_27,innode_5] -1
WCcheckFlow[sink_27,sink_19] 0
WCcheckFlow[sink_10,sink_11] 3
WCcheckFlow[sink_10,innode_2] 0
WCcheckFlow[sink_10,innode_3] 7
WCcheckFlow[innode_6,sink_25] -14
WCcheckFlow[sink_11,innode_1] 2
WCcheckFlow[sink_19,innode_2] 1
WCcheckFlow[source_3,innode_4] -1
WCcheckFlow[source_2,innode_7] -1
WCcheckFlow[sink_3,innode_8] 37
